NAME          ClpDefau  FREE
ROWS
 N  OBJROW
 L  ZMUNI1_PCT
 L  ZMUNI2_PCT
 L  ZMUNI3_PCT
 L  ZMUNI4_PCT
 L  ZMUNI5_PCT
 L  ZMUNI6_PCT
 L  ZMUNI7_PCT
 L  ZMUNI8_PCT
 L  ZMUNI9_PCT
COLUMNS
    QMUNI1 OBJROW 1.          
    QMUNI1 ZMUNI1_PCT 30461.1206  
    QMUNI1 ZMUNI2_PCT 2035.9039   
    QMUNI1 ZMUNI3_PCT 4561.4243   
    QMUNI1 ZMUNI4_PCT 3390.3122   
    QMUNI1 ZMUNI5_PCT 770.9503    
    QMUNI1 ZMUNI6_PCT 909.8053    
    QMUNI1 ZMUNI7_PCT 2840.805    
    QMUNI1 ZMUNI8_PCT 2061.4624   
    QMUNI1 ZMUNI9_PCT 1066.9708   
    QMUNI2 OBJROW 1.          
    QMUNI2 ZMUNI1_PCT 1664.5432   
    QMUNI2 ZMUNI2_PCT 36202.8122  
    QMUNI2 ZMUNI3_PCT 2508.1635   
    QMUNI2 ZMUNI4_PCT 2693.367    
    QMUNI2 ZMUNI5_PCT  -61.7981   
    QMUNI2 ZMUNI6_PCT 42.3432     
    QMUNI2 ZMUNI7_PCT 1198.9593   
    QMUNI2 ZMUNI8_PCT 1349.2585   
    QMUNI2 ZMUNI9_PCT 1258.4686   
    QMUNI3 OBJROW 1.          
    QMUNI3 ZMUNI1_PCT 4660.0342   
    QMUNI3 ZMUNI2_PCT 3147.1253   
    QMUNI3 ZMUNI3_PCT 32374.9543  
    QMUNI3 ZMUNI4_PCT 5589.8667   
    QMUNI3 ZMUNI5_PCT 844.9554    
    QMUNI3 ZMUNI6_PCT 973.1293    
    QMUNI3 ZMUNI7_PCT 3100.5859   
    QMUNI3 ZMUNI8_PCT 2676.7731   
    QMUNI3 ZMUNI9_PCT 2089.3097   
    QMUNI4 OBJROW 1.          
    QMUNI4 ZMUNI1_PCT 4087.4481   
    QMUNI4 ZMUNI2_PCT 3923.2254   
    QMUNI4 ZMUNI3_PCT 6345.5582   
    QMUNI4 ZMUNI4_PCT 114351.4633 
    QMUNI4 ZMUNI5_PCT 1027.4887   
    QMUNI4 ZMUNI6_PCT 1165.39     
    QMUNI4 ZMUNI7_PCT 3441.2384   
    QMUNI4 ZMUNI8_PCT 3139.8774   
    QMUNI4 ZMUNI9_PCT 3032.6843   
    QMUNI5 OBJROW 1.          
    QMUNI5 ZMUNI1_PCT 583.458     
    QMUNI5 ZMUNI2_PCT 533.8669    
    QMUNI5 ZMUNI3_PCT 547.9813    
    QMUNI5 ZMUNI4_PCT 472.641     
    QMUNI5 ZMUNI5_PCT 40678.215   
    QMUNI5 ZMUNI6_PCT 3379.4403   
    QMUNI5 ZMUNI7_PCT 1217.6513   
    QMUNI5 ZMUNI8_PCT 1021.9574   
    QMUNI5 ZMUNI9_PCT 1248.1689   
    QMUNI6 OBJROW 1.          
    QMUNI6 ZMUNI1_PCT 439.2624    
    QMUNI6 ZMUNI2_PCT 245.6665    
    QMUNI6 ZMUNI3_PCT 349.9985    
    QMUNI6 ZMUNI4_PCT 270.8435    
    QMUNI6 ZMUNI5_PCT 3419.8761   
    QMUNI6 ZMUNI6_PCT 35709.5719  
    QMUNI6 ZMUNI7_PCT 848.3886    
    QMUNI6 ZMUNI8_PCT 465.7746    
    QMUNI6 ZMUNI9_PCT 374.6033    
    QMUNI7 OBJROW 1.          
    QMUNI7 ZMUNI1_PCT 1767.3493   
    QMUNI7 ZMUNI2_PCT 1194.3817   
    QMUNI7 ZMUNI3_PCT 1595.1157   
    QMUNI7 ZMUNI4_PCT 1258.4686   
    QMUNI7 ZMUNI5_PCT 810.2417    
    QMUNI7 ZMUNI6_PCT 979.805     
    QMUNI7 ZMUNI7_PCT 40459.4421  
    QMUNI7 ZMUNI8_PCT 3507.2327   
    QMUNI7 ZMUNI9_PCT 1921.463    
    QMUNI8 OBJROW 1.          
    QMUNI8 ZMUNI1_PCT 1313.0188   
    QMUNI8 ZMUNI2_PCT 1092.3386   
    QMUNI8 ZMUNI3_PCT 1323.1278   
    QMUNI8 ZMUNI4_PCT 1067.9245   
    QMUNI8 ZMUNI5_PCT 404.9301    
    QMUNI8 ZMUNI6_PCT 473.5947    
    QMUNI8 ZMUNI7_PCT 3213.8824   
    QMUNI8 ZMUNI8_PCT 33838.6536  
    QMUNI8 ZMUNI9_PCT 1605.6061   
    QMUNI9 OBJROW 1.          
    QMUNI9 ZMUNI1_PCT 995.8267    
    QMUNI9 ZMUNI2_PCT 1349.2584   
    QMUNI9 ZMUNI3_PCT 1102.0661   
    QMUNI9 ZMUNI4_PCT 973.32      
    QMUNI9 ZMUNI5_PCT 898.3612    
    QMUNI9 ZMUNI6_PCT 864.9826    
    QMUNI9 ZMUNI7_PCT 1858.139    
    QMUNI9 ZMUNI8_PCT 2245.7123   
    QMUNI9 ZMUNI9_PCT 35227.5848  
RHS
    RHS ZMUNI1_PCT  -1.27712115
    RHS ZMUNI2_PCT  -2.07951841
    RHS ZMUNI3_PCT  -2.12230478
    RHS ZMUNI4_PCT 2.5213704732
    RHS ZMUNI5_PCT  -4.70903263
    RHS ZMUNI6_PCT  -3.62547714
    RHS ZMUNI7_PCT  -7.70761578
    RHS ZMUNI8_PCT  -5.43220768
    RHS ZMUNI9_PCT  -4.84611037
BOUNDS
 LO BOUND QMUNI1 -0.000629628
 UP BOUND QMUNI1      1.1e+10
 LO BOUND QMUNI2 -0.000415428
 UP BOUND QMUNI2      1.1e+10
 LO BOUND QMUNI3 -0.000468104
 UP BOUND QMUNI3      1.1e+10
 LO BOUND QMUNI4 -0.000172932
 UP BOUND QMUNI4      1.1e+10
 LO BOUND QMUNI5 -0.000234726
 UP BOUND QMUNI5      1.1e+10
 LO BOUND QMUNI6 -0.000390037
 UP BOUND QMUNI6      1.1e+10
 LO BOUND QMUNI7  -3.52446e-5
 UP BOUND QMUNI7      1.1e+10
 LO BOUND QMUNI8 -0.000152965
 UP BOUND QMUNI8      1.1e+10
 LO BOUND QMUNI9 -0.000106133
 UP BOUND QMUNI9      1.1e+10
ENDATA
